# Solution for model MIP
# Objective value = -7.7615020711539273e+01
theta -6.5357682295749328e+01
z_w0_k0_m0 7.9448505968796090e-01
z_w0_k0_m1 8.8048938711378411e-01
z_w0_k1_m0 7.9448505968796090e-01
z_w0_k1_m1 8.8048938711378411e-01
z_w0_k2_m0 8.9475413478945287e-01
z_w0_k2_m1 9.2949148021943295e-01
z_w1_k0_m0 9.4686367293028473e-01
z_w1_k0_m1 9.7292932738146909e-01
z_w1_k1_m0 9.2144509339453151e-01
z_w1_k1_m1 9.2144509339453151e-01
z_w1_k2_m0 8.9475413478945287e-01
z_w1_k2_m1 8.9475413478945287e-01
z_w2_k0_m0 9.4686367293028473e-01
z_w2_k0_m1 9.7095982204017783e-01
z_w2_k1_m0 9.2144509339453151e-01
z_w2_k1_m1 9.5412841645901858e-01
z_w2_k2_m0 8.9475413478945287e-01
z_w2_k2_m1 9.2949148021943295e-01
z_w3_k0_m0 9.4686367293028473e-01
z_w3_k0_m1 9.4686367293028473e-01
z_w3_k1_m0 9.2144509339453151e-01
z_w3_k1_m1 9.4435872095874551e-01
z_w3_k2_m0 7.9448505968796090e-01
z_w3_k2_m1 8.8048938711378411e-01
z_w4_k0_m0 7.9448505968796090e-01
z_w4_k0_m1 8.8048938711378411e-01
z_w4_k1_m0 7.9448505968796090e-01
z_w4_k1_m1 8.8048938711378411e-01
z_w4_k2_m0 7.9448505968796090e-01
z_w4_k2_m1 8.8048938711378411e-01
pi_w0_t0_k0 1
pi_w0_t0_k1 1
pi_w0_t0_k2 0
pi_w0_t1_k0 0
pi_w0_t1_k1 0
pi_w0_t1_k2 0
pi_w0_t2_k0 0
pi_w0_t2_k1 0
pi_w0_t2_k2 0
pi_w0_t3_k0 0
pi_w0_t3_k1 0
pi_w0_t3_k2 0
pi_w0_t4_k0 0
pi_w0_t4_k1 0
pi_w0_t4_k2 0
pi_w0_t5_k0 0
pi_w0_t5_k1 0
pi_w0_t5_k2 0
pi_w0_t6_k0 0
pi_w0_t6_k1 0
pi_w0_t6_k2 1
pi_w0_t7_k0 0
pi_w0_t7_k1 0
pi_w0_t7_k2 0
pi_w0_t8_k0 0
pi_w0_t8_k1 0
pi_w0_t8_k2 0
pi_w0_t9_k0 0
pi_w0_t9_k1 0
pi_w0_t9_k2 0
pi_w0_t10_k0 0
pi_w0_t10_k1 0
pi_w0_t10_k2 0
pi_w0_t11_k0 0
pi_w0_t11_k1 0
pi_w0_t11_k2 0
pi_w0_t12_k0 0
pi_w0_t12_k1 0
pi_w0_t12_k2 0
pi_w0_t13_k0 0
pi_w0_t13_k1 0
pi_w0_t13_k2 0
pi_w0_t14_k0 0
pi_w0_t14_k1 0
pi_w0_t14_k2 0
pi_w0_t15_k0 0
pi_w0_t15_k1 0
pi_w0_t15_k2 0
pi_w0_t16_k0 0
pi_w0_t16_k1 0
pi_w0_t16_k2 0
pi_w0_t17_k0 0
pi_w0_t17_k1 0
pi_w0_t17_k2 0
pi_w0_t18_k0 0
pi_w0_t18_k1 0
pi_w0_t18_k2 0
pi_w0_t19_k0 0
pi_w0_t19_k1 0
pi_w0_t19_k2 0
pi_w0_t20_k0 0
pi_w0_t20_k1 0
pi_w0_t20_k2 0
pi_w0_t21_k0 0
pi_w0_t21_k1 0
pi_w0_t21_k2 0
pi_w0_t22_k0 0
pi_w0_t22_k1 0
pi_w0_t22_k2 0
pi_w0_t23_k0 0
pi_w0_t23_k1 0
pi_w0_t23_k2 0
pi_w0_t24_k0 0
pi_w0_t24_k1 0
pi_w0_t24_k2 0
pi_w0_t25_k0 0
pi_w0_t25_k1 0
pi_w0_t25_k2 0
pi_w0_t26_k0 0
pi_w0_t26_k1 0
pi_w0_t26_k2 0
pi_w0_t27_k0 0
pi_w0_t27_k1 0
pi_w0_t27_k2 0
pi_w0_t28_k0 0
pi_w0_t28_k1 0
pi_w0_t28_k2 0
pi_w0_t29_k0 0
pi_w0_t29_k1 0
pi_w0_t29_k2 0
pi_w0_t30_k0 0
pi_w0_t30_k1 0
pi_w0_t30_k2 0
pi_w0_t31_k0 0
pi_w0_t31_k1 0
pi_w0_t31_k2 0
pi_w0_t32_k0 0
pi_w0_t32_k1 0
pi_w0_t32_k2 0
pi_w0_t33_k0 0
pi_w0_t33_k1 0
pi_w0_t33_k2 0
pi_w0_t34_k0 0
pi_w0_t34_k1 0
pi_w0_t34_k2 0
pi_w0_t35_k0 0
pi_w0_t35_k1 0
pi_w0_t35_k2 0
pi_w0_t36_k0 0
pi_w0_t36_k1 0
pi_w0_t36_k2 0
pi_w0_t37_k0 0
pi_w0_t37_k1 0
pi_w0_t37_k2 0
pi_w0_t38_k0 0
pi_w0_t38_k1 0
pi_w0_t38_k2 0
pi_w0_t39_k0 0
pi_w0_t39_k1 0
pi_w0_t39_k2 0
pi_w0_t40_k0 0
pi_w0_t40_k1 0
pi_w0_t40_k2 0
pi_w0_t41_k0 0
pi_w0_t41_k1 0
pi_w0_t41_k2 0
pi_w1_t0_k0 0
pi_w1_t0_k1 0
pi_w1_t0_k2 0
pi_w1_t1_k0 0
pi_w1_t1_k1 0
pi_w1_t1_k2 0
pi_w1_t2_k0 0
pi_w1_t2_k1 0
pi_w1_t2_k2 0
pi_w1_t3_k0 0
pi_w1_t3_k1 0
pi_w1_t3_k2 0
pi_w1_t4_k0 0
pi_w1_t4_k1 0
pi_w1_t4_k2 0
pi_w1_t5_k0 0
pi_w1_t5_k1 0
pi_w1_t5_k2 0
pi_w1_t6_k0 0
pi_w1_t6_k1 0
pi_w1_t6_k2 0
pi_w1_t7_k0 0
pi_w1_t7_k1 0
pi_w1_t7_k2 0
pi_w1_t8_k0 0
pi_w1_t8_k1 0
pi_w1_t8_k2 0
pi_w1_t9_k0 0
pi_w1_t9_k1 0
pi_w1_t9_k2 0
pi_w1_t10_k0 0
pi_w1_t10_k1 0
pi_w1_t10_k2 0
pi_w1_t11_k0 0
pi_w1_t11_k1 0
pi_w1_t11_k2 1.4566859002098628e-01
pi_w1_t12_k0 0
pi_w1_t12_k1 0
pi_w1_t12_k2 0
pi_w1_t13_k0 0
pi_w1_t13_k1 1.3480542218693209e-01
pi_w1_t13_k2 0
pi_w1_t14_k0 7.1839780951185775e-02
pi_w1_t14_k1 0
pi_w1_t14_k2 0
pi_w1_t15_k0 0
pi_w1_t15_k1 0
pi_w1_t15_k2 0
pi_w1_t16_k0 0
pi_w1_t16_k1 0
pi_w1_t16_k2 0
pi_w1_t17_k0 0
pi_w1_t17_k1 0
pi_w1_t17_k2 4.3769091375751262e-01
pi_w1_t18_k0 0
pi_w1_t18_k1 0
pi_w1_t18_k2 0
pi_w1_t19_k0 0
pi_w1_t19_k1 0
pi_w1_t19_k2 0
pi_w1_t20_k0 0
pi_w1_t20_k1 0
pi_w1_t20_k2 0
pi_w1_t21_k0 0
pi_w1_t21_k1 0
pi_w1_t21_k2 0
pi_w1_t22_k0 0
pi_w1_t22_k1 0
pi_w1_t22_k2 0
pi_w1_t23_k0 0
pi_w1_t23_k1 0
pi_w1_t23_k2 0
pi_w1_t24_k0 0
pi_w1_t24_k1 0
pi_w1_t24_k2 0
pi_w1_t25_k0 0
pi_w1_t25_k1 0
pi_w1_t25_k2 0
pi_w1_t26_k0 0
pi_w1_t26_k1 0
pi_w1_t26_k2 0
pi_w1_t27_k0 0
pi_w1_t27_k1 1.2604266994372585e-02
pi_w1_t27_k2 0
pi_w1_t28_k0 0
pi_w1_t28_k1 0
pi_w1_t28_k2 0
pi_w1_t29_k0 0
pi_w1_t29_k1 0
pi_w1_t29_k2 0
pi_w1_t30_k0 0
pi_w1_t30_k1 0
pi_w1_t30_k2 0
pi_w1_t31_k0 0
pi_w1_t31_k1 0
pi_w1_t31_k2 0
pi_w1_t32_k0 0
pi_w1_t32_k1 0
pi_w1_t32_k2 0
pi_w1_t33_k0 0
pi_w1_t33_k1 8.5259031081869541e-01
pi_w1_t33_k2 0
pi_w1_t34_k0 0
pi_w1_t34_k1 0
pi_w1_t34_k2 0
pi_w1_t35_k0 0
pi_w1_t35_k1 0
pi_w1_t35_k2 0
pi_w1_t36_k0 0
pi_w1_t36_k1 0
pi_w1_t36_k2 4.1664049622150101e-01
pi_w1_t37_k0 0
pi_w1_t37_k1 0
pi_w1_t37_k2 0
pi_w1_t38_k0 0
pi_w1_t38_k1 0
pi_w1_t38_k2 0
pi_w1_t39_k0 9.2816021904881418e-01
pi_w1_t39_k1 0
pi_w1_t39_k2 0
pi_w1_t40_k0 0
pi_w1_t40_k1 0
pi_w1_t40_k2 0
pi_w1_t41_k0 0
pi_w1_t41_k1 0
pi_w1_t41_k2 0
pi_w2_t0_k0 0
pi_w2_t0_k1 0
pi_w2_t0_k2 0
pi_w2_t1_k0 0
pi_w2_t1_k1 0
pi_w2_t1_k2 0
pi_w2_t2_k0 0
pi_w2_t2_k1 0
pi_w2_t2_k2 0
pi_w2_t3_k0 0
pi_w2_t3_k1 0
pi_w2_t3_k2 0
pi_w2_t4_k0 0
pi_w2_t4_k1 0
pi_w2_t4_k2 0
pi_w2_t5_k0 0
pi_w2_t5_k1 0
pi_w2_t5_k2 0
pi_w2_t6_k0 0
pi_w2_t6_k1 3.4704632291117360e-01
pi_w2_t6_k2 1
pi_w2_t7_k0 0
pi_w2_t7_k1 0
pi_w2_t7_k2 0
pi_w2_t8_k0 0
pi_w2_t8_k1 0
pi_w2_t8_k2 0
pi_w2_t9_k0 0
pi_w2_t9_k1 0
pi_w2_t9_k2 0
pi_w2_t10_k0 0
pi_w2_t10_k1 0
pi_w2_t10_k2 0
pi_w2_t11_k0 0
pi_w2_t11_k1 0
pi_w2_t11_k2 0
pi_w2_t12_k0 0
pi_w2_t12_k1 2.3349748828337655e-01
pi_w2_t12_k2 0
pi_w2_t13_k0 0
pi_w2_t13_k1 0
pi_w2_t13_k2 0
pi_w2_t14_k0 0
pi_w2_t14_k1 0
pi_w2_t14_k2 0
pi_w2_t15_k0 0
pi_w2_t15_k1 0
pi_w2_t15_k2 0
pi_w2_t16_k0 0
pi_w2_t16_k1 0
pi_w2_t16_k2 0
pi_w2_t17_k0 0
pi_w2_t17_k1 0
pi_w2_t17_k2 0
pi_w2_t18_k0 0
pi_w2_t18_k1 0
pi_w2_t18_k2 0
pi_w2_t19_k0 0
pi_w2_t19_k1 0
pi_w2_t19_k2 0
pi_w2_t20_k0 0
pi_w2_t20_k1 0
pi_w2_t20_k2 0
pi_w2_t21_k0 9.5047934517477706e-01
pi_w2_t21_k1 4.1945618880544983e-01
pi_w2_t21_k2 0
pi_w2_t22_k0 0
pi_w2_t22_k1 0
pi_w2_t22_k2 0
pi_w2_t23_k0 0
pi_w2_t23_k1 0
pi_w2_t23_k2 0
pi_w2_t24_k0 4.9520654825222749e-02
pi_w2_t24_k1 0
pi_w2_t24_k2 0
pi_w2_t25_k0 0
pi_w2_t25_k1 0
pi_w2_t25_k2 0
pi_w2_t26_k0 0
pi_w2_t26_k1 0
pi_w2_t26_k2 0
pi_w2_t27_k0 0
pi_w2_t27_k1 0
pi_w2_t27_k2 0
pi_w2_t28_k0 0
pi_w2_t28_k1 0
pi_w2_t28_k2 0
pi_w2_t29_k0 0
pi_w2_t29_k1 0
pi_w2_t29_k2 0
pi_w2_t30_k0 0
pi_w2_t30_k1 0
pi_w2_t30_k2 0
pi_w2_t31_k0 0
pi_w2_t31_k1 0
pi_w2_t31_k2 0
pi_w2_t32_k0 0
pi_w2_t32_k1 0
pi_w2_t32_k2 0
pi_w2_t33_k0 0
pi_w2_t33_k1 0
pi_w2_t33_k2 0
pi_w2_t34_k0 0
pi_w2_t34_k1 0
pi_w2_t34_k2 0
pi_w2_t35_k0 0
pi_w2_t35_k1 0
pi_w2_t35_k2 0
pi_w2_t36_k0 0
pi_w2_t36_k1 0
pi_w2_t36_k2 0
pi_w2_t37_k0 0
pi_w2_t37_k1 0
pi_w2_t37_k2 0
pi_w2_t38_k0 0
pi_w2_t38_k1 0
pi_w2_t38_k2 0
pi_w2_t39_k0 0
pi_w2_t39_k1 0
pi_w2_t39_k2 0
pi_w2_t40_k0 0
pi_w2_t40_k1 0
pi_w2_t40_k2 0
pi_w2_t41_k0 0
pi_w2_t41_k1 0
pi_w2_t41_k2 0
pi_w3_t0_k0 1.1480005692248556e-01
pi_w3_t0_k1 0
pi_w3_t0_k2 1
pi_w3_t1_k0 0
pi_w3_t1_k1 0
pi_w3_t1_k2 0
pi_w3_t2_k0 0
pi_w3_t2_k1 0
pi_w3_t2_k2 0
pi_w3_t3_k0 0
pi_w3_t3_k1 0
pi_w3_t3_k2 0
pi_w3_t4_k0 0
pi_w3_t4_k1 0
pi_w3_t4_k2 0
pi_w3_t5_k0 5.8576511223553972e-02
pi_w3_t5_k1 0
pi_w3_t5_k2 0
pi_w3_t6_k0 0
pi_w3_t6_k1 6.8182303128616462e-01
pi_w3_t6_k2 0
pi_w3_t7_k0 0
pi_w3_t7_k1 0
pi_w3_t7_k2 0
pi_w3_t8_k0 0
pi_w3_t8_k1 0
pi_w3_t8_k2 0
pi_w3_t9_k0 0
pi_w3_t9_k1 0
pi_w3_t9_k2 0
pi_w3_t10_k0 0
pi_w3_t10_k1 0
pi_w3_t10_k2 0
pi_w3_t11_k0 0
pi_w3_t11_k1 0
pi_w3_t11_k2 0
pi_w3_t12_k0 0
pi_w3_t12_k1 0
pi_w3_t12_k2 0
pi_w3_t13_k0 0
pi_w3_t13_k1 0
pi_w3_t13_k2 0
pi_w3_t14_k0 0
pi_w3_t14_k1 0
pi_w3_t14_k2 0
pi_w3_t15_k0 0
pi_w3_t15_k1 0
pi_w3_t15_k2 0
pi_w3_t16_k0 0
pi_w3_t16_k1 0
pi_w3_t16_k2 0
pi_w3_t17_k0 0
pi_w3_t17_k1 0
pi_w3_t17_k2 0
pi_w3_t18_k0 0
pi_w3_t18_k1 0
pi_w3_t18_k2 0
pi_w3_t19_k0 0
pi_w3_t19_k1 0
pi_w3_t19_k2 0
pi_w3_t20_k0 0
pi_w3_t20_k1 0
pi_w3_t20_k2 0
pi_w3_t21_k0 0
pi_w3_t21_k1 0
pi_w3_t21_k2 0
pi_w3_t22_k0 0
pi_w3_t22_k1 0
pi_w3_t22_k2 0
pi_w3_t23_k0 0
pi_w3_t23_k1 0
pi_w3_t23_k2 0
pi_w3_t24_k0 8.2662343185396048e-01
pi_w3_t24_k1 3.1817696871383538e-01
pi_w3_t24_k2 0
pi_w3_t25_k0 0
pi_w3_t25_k1 0
pi_w3_t25_k2 0
pi_w3_t26_k0 0
pi_w3_t26_k1 0
pi_w3_t26_k2 0
pi_w3_t27_k0 0
pi_w3_t27_k1 0
pi_w3_t27_k2 0
pi_w3_t28_k0 0
pi_w3_t28_k1 0
pi_w3_t28_k2 0
pi_w3_t29_k0 0
pi_w3_t29_k1 0
pi_w3_t29_k2 0
pi_w3_t30_k0 0
pi_w3_t30_k1 0
pi_w3_t30_k2 0
pi_w3_t31_k0 0
pi_w3_t31_k1 0
pi_w3_t31_k2 0
pi_w3_t32_k0 0
pi_w3_t32_k1 0
pi_w3_t32_k2 0
pi_w3_t33_k0 0
pi_w3_t33_k1 0
pi_w3_t33_k2 0
pi_w3_t34_k0 0
pi_w3_t34_k1 0
pi_w3_t34_k2 0
pi_w3_t35_k0 0
pi_w3_t35_k1 0
pi_w3_t35_k2 0
pi_w3_t36_k0 0
pi_w3_t36_k1 0
pi_w3_t36_k2 0
pi_w3_t37_k0 0
pi_w3_t37_k1 0
pi_w3_t37_k2 0
pi_w3_t38_k0 0
pi_w3_t38_k1 0
pi_w3_t38_k2 0
pi_w3_t39_k0 0
pi_w3_t39_k1 0
pi_w3_t39_k2 0
pi_w3_t40_k0 0
pi_w3_t40_k1 0
pi_w3_t40_k2 0
pi_w3_t41_k0 0
pi_w3_t41_k1 0
pi_w3_t41_k2 0
pi_w4_t0_k0 1
pi_w4_t0_k1 1
pi_w4_t0_k2 1
pi_w4_t1_k0 0
pi_w4_t1_k1 0
pi_w4_t1_k2 0
pi_w4_t2_k0 0
pi_w4_t2_k1 0
pi_w4_t2_k2 0
pi_w4_t3_k0 0
pi_w4_t3_k1 0
pi_w4_t3_k2 0
pi_w4_t4_k0 0
pi_w4_t4_k1 0
pi_w4_t4_k2 0
pi_w4_t5_k0 0
pi_w4_t5_k1 0
pi_w4_t5_k2 0
pi_w4_t6_k0 0
pi_w4_t6_k1 0
pi_w4_t6_k2 0
pi_w4_t7_k0 0
pi_w4_t7_k1 0
pi_w4_t7_k2 0
pi_w4_t8_k0 0
pi_w4_t8_k1 0
pi_w4_t8_k2 0
pi_w4_t9_k0 0
pi_w4_t9_k1 0
pi_w4_t9_k2 0
pi_w4_t10_k0 0
pi_w4_t10_k1 0
pi_w4_t10_k2 0
pi_w4_t11_k0 0
pi_w4_t11_k1 0
pi_w4_t11_k2 0
pi_w4_t12_k0 0
pi_w4_t12_k1 0
pi_w4_t12_k2 0
pi_w4_t13_k0 0
pi_w4_t13_k1 0
pi_w4_t13_k2 0
pi_w4_t14_k0 0
pi_w4_t14_k1 0
pi_w4_t14_k2 0
pi_w4_t15_k0 0
pi_w4_t15_k1 0
pi_w4_t15_k2 0
pi_w4_t16_k0 0
pi_w4_t16_k1 0
pi_w4_t16_k2 0
pi_w4_t17_k0 0
pi_w4_t17_k1 0
pi_w4_t17_k2 0
pi_w4_t18_k0 0
pi_w4_t18_k1 0
pi_w4_t18_k2 0
pi_w4_t19_k0 0
pi_w4_t19_k1 0
pi_w4_t19_k2 0
pi_w4_t20_k0 0
pi_w4_t20_k1 0
pi_w4_t20_k2 0
pi_w4_t21_k0 0
pi_w4_t21_k1 0
pi_w4_t21_k2 0
pi_w4_t22_k0 0
pi_w4_t22_k1 0
pi_w4_t22_k2 0
pi_w4_t23_k0 0
pi_w4_t23_k1 0
pi_w4_t23_k2 0
pi_w4_t24_k0 0
pi_w4_t24_k1 0
pi_w4_t24_k2 0
pi_w4_t25_k0 0
pi_w4_t25_k1 0
pi_w4_t25_k2 0
pi_w4_t26_k0 0
pi_w4_t26_k1 0
pi_w4_t26_k2 0
pi_w4_t27_k0 0
pi_w4_t27_k1 0
pi_w4_t27_k2 0
pi_w4_t28_k0 0
pi_w4_t28_k1 0
pi_w4_t28_k2 0
pi_w4_t29_k0 0
pi_w4_t29_k1 0
pi_w4_t29_k2 0
pi_w4_t30_k0 0
pi_w4_t30_k1 0
pi_w4_t30_k2 0
pi_w4_t31_k0 0
pi_w4_t31_k1 0
pi_w4_t31_k2 0
pi_w4_t32_k0 0
pi_w4_t32_k1 0
pi_w4_t32_k2 0
pi_w4_t33_k0 0
pi_w4_t33_k1 0
pi_w4_t33_k2 0
pi_w4_t34_k0 0
pi_w4_t34_k1 0
pi_w4_t34_k2 0
pi_w4_t35_k0 0
pi_w4_t35_k1 0
pi_w4_t35_k2 0
pi_w4_t36_k0 0
pi_w4_t36_k1 0
pi_w4_t36_k2 0
pi_w4_t37_k0 0
pi_w4_t37_k1 0
pi_w4_t37_k2 0
pi_w4_t38_k0 0
pi_w4_t38_k1 0
pi_w4_t38_k2 0
pi_w4_t39_k0 0
pi_w4_t39_k1 0
pi_w4_t39_k2 0
pi_w4_t40_k0 0
pi_w4_t40_k1 0
pi_w4_t40_k2 0
pi_w4_t41_k0 0
pi_w4_t41_k1 0
pi_w4_t41_k2 0
n_w0_t0_k0 0
n_w0_t0_k1 0
n_w0_t0_k2 0
n_w0_t1_k0 0
n_w0_t1_k1 0
n_w0_t1_k2 0
n_w0_t2_k0 0
n_w0_t2_k1 0
n_w0_t2_k2 0
n_w0_t3_k0 0
n_w0_t3_k1 0
n_w0_t3_k2 0
n_w0_t4_k0 0
n_w0_t4_k1 0
n_w0_t4_k2 0
n_w0_t5_k0 0
n_w0_t5_k1 0
n_w0_t5_k2 0
n_w0_t6_k0 0
n_w0_t6_k1 0
n_w0_t6_k2 84
n_w0_t7_k0 0
n_w0_t7_k1 0
n_w0_t7_k2 0
n_w0_t8_k0 0
n_w0_t8_k1 0
n_w0_t8_k2 0
n_w0_t9_k0 0
n_w0_t9_k1 0
n_w0_t9_k2 0
n_w0_t10_k0 0
n_w0_t10_k1 0
n_w0_t10_k2 0
n_w0_t11_k0 0
n_w0_t11_k1 0
n_w0_t11_k2 0
n_w0_t12_k0 0
n_w0_t12_k1 0
n_w0_t12_k2 0
n_w0_t13_k0 0
n_w0_t13_k1 0
n_w0_t13_k2 0
n_w0_t14_k0 0
n_w0_t14_k1 0
n_w0_t14_k2 0
n_w0_t15_k0 0
n_w0_t15_k1 0
n_w0_t15_k2 0
n_w0_t16_k0 0
n_w0_t16_k1 0
n_w0_t16_k2 0
n_w0_t17_k0 0
n_w0_t17_k1 0
n_w0_t17_k2 0
n_w0_t18_k0 0
n_w0_t18_k1 0
n_w0_t18_k2 0
n_w0_t19_k0 0
n_w0_t19_k1 0
n_w0_t19_k2 0
n_w0_t20_k0 0
n_w0_t20_k1 0
n_w0_t20_k2 0
n_w0_t21_k0 0
n_w0_t21_k1 0
n_w0_t21_k2 0
n_w0_t22_k0 0
n_w0_t22_k1 0
n_w0_t22_k2 0
n_w0_t23_k0 0
n_w0_t23_k1 0
n_w0_t23_k2 0
n_w0_t24_k0 0
n_w0_t24_k1 0
n_w0_t24_k2 0
n_w0_t25_k0 0
n_w0_t25_k1 0
n_w0_t25_k2 0
n_w0_t26_k0 0
n_w0_t26_k1 0
n_w0_t26_k2 0
n_w0_t27_k0 0
n_w0_t27_k1 0
n_w0_t27_k2 0
n_w0_t28_k0 0
n_w0_t28_k1 0
n_w0_t28_k2 0
n_w0_t29_k0 0
n_w0_t29_k1 0
n_w0_t29_k2 0
n_w0_t30_k0 0
n_w0_t30_k1 0
n_w0_t30_k2 0
n_w0_t31_k0 0
n_w0_t31_k1 0
n_w0_t31_k2 0
n_w0_t32_k0 0
n_w0_t32_k1 0
n_w0_t32_k2 0
n_w0_t33_k0 0
n_w0_t33_k1 0
n_w0_t33_k2 0
n_w0_t34_k0 0
n_w0_t34_k1 0
n_w0_t34_k2 0
n_w0_t35_k0 0
n_w0_t35_k1 0
n_w0_t35_k2 0
n_w0_t36_k0 0
n_w0_t36_k1 0
n_w0_t36_k2 0
n_w0_t37_k0 0
n_w0_t37_k1 0
n_w0_t37_k2 0
n_w0_t38_k0 0
n_w0_t38_k1 0
n_w0_t38_k2 0
n_w0_t39_k0 0
n_w0_t39_k1 0
n_w0_t39_k2 0
n_w0_t40_k0 0
n_w0_t40_k1 0
n_w0_t40_k2 0
n_w0_t41_k0 0
n_w0_t41_k1 0
n_w0_t41_k2 0
n_w1_t0_k0 0
n_w1_t0_k1 0
n_w1_t0_k2 0
n_w1_t1_k0 0
n_w1_t1_k1 0
n_w1_t1_k2 0
n_w1_t2_k0 0
n_w1_t2_k1 0
n_w1_t2_k2 0
n_w1_t3_k0 0
n_w1_t3_k1 0
n_w1_t3_k2 0
n_w1_t4_k0 0
n_w1_t4_k1 0
n_w1_t4_k2 0
n_w1_t5_k0 0
n_w1_t5_k1 0
n_w1_t5_k2 0
n_w1_t6_k0 0
n_w1_t6_k1 0
n_w1_t6_k2 0
n_w1_t7_k0 0
n_w1_t7_k1 0
n_w1_t7_k2 0
n_w1_t8_k0 0
n_w1_t8_k1 0
n_w1_t8_k2 0
n_w1_t9_k0 0
n_w1_t9_k1 0
n_w1_t9_k2 0
n_w1_t10_k0 0
n_w1_t10_k1 0
n_w1_t10_k2 0
n_w1_t11_k0 0
n_w1_t11_k1 0
n_w1_t11_k2 4.2243891106086018e+00
n_w1_t12_k0 0
n_w1_t12_k1 0
n_w1_t12_k2 0
n_w1_t13_k0 0
n_w1_t13_k1 1.8872759106170491e+00
n_w1_t13_k2 0
n_w1_t14_k0 1.2212762761701581e+00
n_w1_t14_k1 0
n_w1_t14_k2 0
n_w1_t15_k0 0
n_w1_t15_k1 0
n_w1_t15_k2 0
n_w1_t16_k0 0
n_w1_t16_k1 0
n_w1_t16_k2 0
n_w1_t17_k0 0
n_w1_t17_k1 0
n_w1_t17_k2 1.2693036498967865e+01
n_w1_t18_k0 0
n_w1_t18_k1 0
n_w1_t18_k2 0
n_w1_t19_k0 0
n_w1_t19_k1 0
n_w1_t19_k2 0
n_w1_t20_k0 0
n_w1_t20_k1 0
n_w1_t20_k2 0
n_w1_t21_k0 0
n_w1_t21_k1 0
n_w1_t21_k2 0
n_w1_t22_k0 0
n_w1_t22_k1 0
n_w1_t22_k2 0
n_w1_t23_k0 0
n_w1_t23_k1 0
n_w1_t23_k2 0
n_w1_t24_k0 0
n_w1_t24_k1 0
n_w1_t24_k2 0
n_w1_t25_k0 0
n_w1_t25_k1 0
n_w1_t25_k2 0
n_w1_t26_k0 0
n_w1_t26_k1 0
n_w1_t26_k2 0
n_w1_t27_k0 0
n_w1_t27_k1 1.7645973792121619e-01
n_w1_t27_k2 0
n_w1_t28_k0 0
n_w1_t28_k1 0
n_w1_t28_k2 0
n_w1_t29_k0 0
n_w1_t29_k1 0
n_w1_t29_k2 0
n_w1_t30_k0 0
n_w1_t30_k1 0
n_w1_t30_k2 0
n_w1_t31_k0 0
n_w1_t31_k1 0
n_w1_t31_k2 0
n_w1_t32_k0 0
n_w1_t32_k1 0
n_w1_t32_k2 0
n_w1_t33_k0 0
n_w1_t33_k1 1.1936264351461736e+01
n_w1_t33_k2 0
n_w1_t34_k0 0
n_w1_t34_k1 0
n_w1_t34_k2 0
n_w1_t35_k0 0
n_w1_t35_k1 0
n_w1_t35_k2 0
n_w1_t36_k0 0
n_w1_t36_k1 0
n_w1_t36_k2 1.2082574390423529e+01
n_w1_t37_k0 0
n_w1_t37_k1 0
n_w1_t37_k2 0
n_w1_t38_k0 0
n_w1_t38_k1 0
n_w1_t38_k2 0
n_w1_t39_k0 1.5778723723829842e+01
n_w1_t39_k1 0
n_w1_t39_k2 0
n_w1_t40_k0 0
n_w1_t40_k1 0
n_w1_t40_k2 0
n_w1_t41_k0 0
n_w1_t41_k1 0
n_w1_t41_k2 0
n_w2_t0_k0 0
n_w2_t0_k1 0
n_w2_t0_k2 0
n_w2_t1_k0 0
n_w2_t1_k1 0
n_w2_t1_k2 0
n_w2_t2_k0 0
n_w2_t2_k1 0
n_w2_t2_k2 0
n_w2_t3_k0 0
n_w2_t3_k1 0
n_w2_t3_k2 0
n_w2_t4_k0 0
n_w2_t4_k1 0
n_w2_t4_k2 0
n_w2_t5_k0 0
n_w2_t5_k1 0
n_w2_t5_k2 0
n_w2_t6_k0 0
n_w2_t6_k1 5.4139226374143085e+01
n_w2_t6_k2 172
n_w2_t7_k0 0
n_w2_t7_k1 0
n_w2_t7_k2 0
n_w2_t8_k0 0
n_w2_t8_k1 0
n_w2_t8_k2 0
n_w2_t9_k0 0
n_w2_t9_k1 0
n_w2_t9_k2 0
n_w2_t10_k0 0
n_w2_t10_k1 0
n_w2_t10_k2 0
n_w2_t11_k0 0
n_w2_t11_k1 0
n_w2_t11_k2 0
n_w2_t12_k0 0
n_w2_t12_k1 3.6425608172206744e+01
n_w2_t12_k2 0
n_w2_t13_k0 0
n_w2_t13_k1 0
n_w2_t13_k2 0
n_w2_t14_k0 0
n_w2_t14_k1 0
n_w2_t14_k2 0
n_w2_t15_k0 0
n_w2_t15_k1 0
n_w2_t15_k2 0
n_w2_t16_k0 0
n_w2_t16_k1 0
n_w2_t16_k2 0
n_w2_t17_k0 0
n_w2_t17_k1 0
n_w2_t17_k2 0
n_w2_t18_k0 0
n_w2_t18_k1 0
n_w2_t18_k2 0
n_w2_t19_k0 0
n_w2_t19_k1 0
n_w2_t19_k2 0
n_w2_t20_k0 0
n_w2_t20_k1 0
n_w2_t20_k2 0
n_w2_t21_k0 1.2356231487272101e+01
n_w2_t21_k1 6.5435165453650171e+01
n_w2_t21_k2 0
n_w2_t22_k0 0
n_w2_t22_k1 0
n_w2_t22_k2 0
n_w2_t23_k0 0
n_w2_t23_k1 0
n_w2_t23_k2 0
n_w2_t24_k0 6.4376851272789570e-01
n_w2_t24_k1 0
n_w2_t24_k2 0
n_w2_t25_k0 0
n_w2_t25_k1 0
n_w2_t25_k2 0
n_w2_t26_k0 0
n_w2_t26_k1 0
n_w2_t26_k2 0
n_w2_t27_k0 0
n_w2_t27_k1 0
n_w2_t27_k2 0
n_w2_t28_k0 0
n_w2_t28_k1 0
n_w2_t28_k2 0
n_w2_t29_k0 0
n_w2_t29_k1 0
n_w2_t29_k2 0
n_w2_t30_k0 0
n_w2_t30_k1 0
n_w2_t30_k2 0
n_w2_t31_k0 0
n_w2_t31_k1 0
n_w2_t31_k2 0
n_w2_t32_k0 0
n_w2_t32_k1 0
n_w2_t32_k2 0
n_w2_t33_k0 0
n_w2_t33_k1 0
n_w2_t33_k2 0
n_w2_t34_k0 0
n_w2_t34_k1 0
n_w2_t34_k2 0
n_w2_t35_k0 0
n_w2_t35_k1 0
n_w2_t35_k2 0
n_w2_t36_k0 0
n_w2_t36_k1 0
n_w2_t36_k2 0
n_w2_t37_k0 0
n_w2_t37_k1 0
n_w2_t37_k2 0
n_w2_t38_k0 0
n_w2_t38_k1 0
n_w2_t38_k2 0
n_w2_t39_k0 0
n_w2_t39_k1 0
n_w2_t39_k2 0
n_w2_t40_k0 0
n_w2_t40_k1 0
n_w2_t40_k2 0
n_w2_t41_k0 0
n_w2_t41_k1 0
n_w2_t41_k2 0
n_w3_t0_k0 1.0332005123023700e+01
n_w3_t0_k1 0
n_w3_t0_k2 0
n_w3_t1_k0 0
n_w3_t1_k1 0
n_w3_t1_k2 0
n_w3_t2_k0 0
n_w3_t2_k1 0
n_w3_t2_k2 0
n_w3_t3_k0 0
n_w3_t3_k1 0
n_w3_t3_k2 0
n_w3_t4_k0 0
n_w3_t4_k1 0
n_w3_t4_k2 0
n_w3_t5_k0 5.2718860101198572e+00
n_w3_t5_k1 0
n_w3_t5_k2 0
n_w3_t6_k0 0
n_w3_t6_k1 1.5000106688295622e+01
n_w3_t6_k2 0
n_w3_t7_k0 0
n_w3_t7_k1 0
n_w3_t7_k2 0
n_w3_t8_k0 0
n_w3_t8_k1 0
n_w3_t8_k2 0
n_w3_t9_k0 0
n_w3_t9_k1 0
n_w3_t9_k2 0
n_w3_t10_k0 0
n_w3_t10_k1 0
n_w3_t10_k2 0
n_w3_t11_k0 0
n_w3_t11_k1 0
n_w3_t11_k2 0
n_w3_t12_k0 0
n_w3_t12_k1 0
n_w3_t12_k2 0
n_w3_t13_k0 0
n_w3_t13_k1 0
n_w3_t13_k2 0
n_w3_t14_k0 0
n_w3_t14_k1 0
n_w3_t14_k2 0
n_w3_t15_k0 0
n_w3_t15_k1 0
n_w3_t15_k2 0
n_w3_t16_k0 0
n_w3_t16_k1 0
n_w3_t16_k2 0
n_w3_t17_k0 0
n_w3_t17_k1 0
n_w3_t17_k2 0
n_w3_t18_k0 0
n_w3_t18_k1 0
n_w3_t18_k2 0
n_w3_t19_k0 0
n_w3_t19_k1 0
n_w3_t19_k2 0
n_w3_t20_k0 0
n_w3_t20_k1 0
n_w3_t20_k2 0
n_w3_t21_k0 0
n_w3_t21_k1 0
n_w3_t21_k2 0
n_w3_t22_k0 0
n_w3_t22_k1 0
n_w3_t22_k2 0
n_w3_t23_k0 0
n_w3_t23_k1 0
n_w3_t23_k2 0
n_w3_t24_k0 7.4396108866856437e+01
n_w3_t24_k1 6.9998933117043780e+00
n_w3_t24_k2 0
n_w3_t25_k0 0
n_w3_t25_k1 0
n_w3_t25_k2 0
n_w3_t26_k0 0
n_w3_t26_k1 0
n_w3_t26_k2 0
n_w3_t27_k0 0
n_w3_t27_k1 0
n_w3_t27_k2 0
n_w3_t28_k0 0
n_w3_t28_k1 0
n_w3_t28_k2 0
n_w3_t29_k0 0
n_w3_t29_k1 0
n_w3_t29_k2 0
n_w3_t30_k0 0
n_w3_t30_k1 0
n_w3_t30_k2 0
n_w3_t31_k0 0
n_w3_t31_k1 0
n_w3_t31_k2 0
n_w3_t32_k0 0
n_w3_t32_k1 0
n_w3_t32_k2 0
n_w3_t33_k0 0
n_w3_t33_k1 0
n_w3_t33_k2 0
n_w3_t34_k0 0
n_w3_t34_k1 0
n_w3_t34_k2 0
n_w3_t35_k0 0
n_w3_t35_k1 0
n_w3_t35_k2 0
n_w3_t36_k0 0
n_w3_t36_k1 0
n_w3_t36_k2 0
n_w3_t37_k0 0
n_w3_t37_k1 0
n_w3_t37_k2 0
n_w3_t38_k0 0
n_w3_t38_k1 0
n_w3_t38_k2 0
n_w3_t39_k0 0
n_w3_t39_k1 0
n_w3_t39_k2 0
n_w3_t40_k0 0
n_w3_t40_k1 0
n_w3_t40_k2 0
n_w3_t41_k0 0
n_w3_t41_k1 0
n_w3_t41_k2 0
n_w4_t0_k0 0
n_w4_t0_k1 0
n_w4_t0_k2 0
n_w4_t1_k0 0
n_w4_t1_k1 0
n_w4_t1_k2 0
n_w4_t2_k0 0
n_w4_t2_k1 0
n_w4_t2_k2 0
n_w4_t3_k0 0
n_w4_t3_k1 0
n_w4_t3_k2 0
n_w4_t4_k0 0
n_w4_t4_k1 0
n_w4_t4_k2 0
n_w4_t5_k0 0
n_w4_t5_k1 0
n_w4_t5_k2 0
n_w4_t6_k0 0
n_w4_t6_k1 0
n_w4_t6_k2 0
n_w4_t7_k0 0
n_w4_t7_k1 0
n_w4_t7_k2 0
n_w4_t8_k0 0
n_w4_t8_k1 0
n_w4_t8_k2 0
n_w4_t9_k0 0
n_w4_t9_k1 0
n_w4_t9_k2 0
n_w4_t10_k0 0
n_w4_t10_k1 0
n_w4_t10_k2 0
n_w4_t11_k0 0
n_w4_t11_k1 0
n_w4_t11_k2 0
n_w4_t12_k0 0
n_w4_t12_k1 0
n_w4_t12_k2 0
n_w4_t13_k0 0
n_w4_t13_k1 0
n_w4_t13_k2 0
n_w4_t14_k0 0
n_w4_t14_k1 0
n_w4_t14_k2 0
n_w4_t15_k0 0
n_w4_t15_k1 0
n_w4_t15_k2 0
n_w4_t16_k0 0
n_w4_t16_k1 0
n_w4_t16_k2 0
n_w4_t17_k0 0
n_w4_t17_k1 0
n_w4_t17_k2 0
n_w4_t18_k0 0
n_w4_t18_k1 0
n_w4_t18_k2 0
n_w4_t19_k0 0
n_w4_t19_k1 0
n_w4_t19_k2 0
n_w4_t20_k0 0
n_w4_t20_k1 0
n_w4_t20_k2 0
n_w4_t21_k0 0
n_w4_t21_k1 0
n_w4_t21_k2 0
n_w4_t22_k0 0
n_w4_t22_k1 0
n_w4_t22_k2 0
n_w4_t23_k0 0
n_w4_t23_k1 0
n_w4_t23_k2 0
n_w4_t24_k0 0
n_w4_t24_k1 0
n_w4_t24_k2 0
n_w4_t25_k0 0
n_w4_t25_k1 0
n_w4_t25_k2 0
n_w4_t26_k0 0
n_w4_t26_k1 0
n_w4_t26_k2 0
n_w4_t27_k0 0
n_w4_t27_k1 0
n_w4_t27_k2 0
n_w4_t28_k0 0
n_w4_t28_k1 0
n_w4_t28_k2 0
n_w4_t29_k0 0
n_w4_t29_k1 0
n_w4_t29_k2 0
n_w4_t30_k0 0
n_w4_t30_k1 0
n_w4_t30_k2 0
n_w4_t31_k0 0
n_w4_t31_k1 0
n_w4_t31_k2 0
n_w4_t32_k0 0
n_w4_t32_k1 0
n_w4_t32_k2 0
n_w4_t33_k0 0
n_w4_t33_k1 0
n_w4_t33_k2 0
n_w4_t34_k0 0
n_w4_t34_k1 0
n_w4_t34_k2 0
n_w4_t35_k0 0
n_w4_t35_k1 0
n_w4_t35_k2 0
n_w4_t36_k0 0
n_w4_t36_k1 0
n_w4_t36_k2 0
n_w4_t37_k0 0
n_w4_t37_k1 0
n_w4_t37_k2 0
n_w4_t38_k0 0
n_w4_t38_k1 0
n_w4_t38_k2 0
n_w4_t39_k0 0
n_w4_t39_k1 0
n_w4_t39_k2 0
n_w4_t40_k0 0
n_w4_t40_k1 0
n_w4_t40_k2 0
n_w4_t41_k0 0
n_w4_t41_k1 0
n_w4_t41_k2 0
o_w0_r0 0
o_w0_r1 0
o_w0_r2 0
o_w0_r3 0
o_w0_r4 0
o_w0_r5 0
o_w1_r0 0
o_w1_r1 0
o_w1_r2 0
o_w1_r3 0
o_w1_r4 0
o_w1_r5 0
o_w2_r0 0
o_w2_r1 0
o_w2_r2 0
o_w2_r3 3.6283548300335134e+01
o_w2_r4 0
o_w2_r5 0
o_w3_r0 0
o_w3_r1 0
o_w3_r2 0
o_w3_r3 0
o_w3_r4 0
o_w3_r5 0
o_w4_r0 0
o_w4_r1 0
o_w4_r2 0
o_w4_r3 0
o_w4_r4 0
o_w4_r5 0
y_w0_r0 1.1830985915492958e+00
y_w0_r1 2.7361563517915310e-01
y_w0_r2 0
y_w0_r3 0
y_w0_r4 0
y_w0_r5 0
y_w1_r0 2.4853484214255803e-03
y_w1_r1 1.0212306201720220e-01
y_w1_r2 1.7995531495096090e-01
y_w1_r3 0
y_w1_r4 5.1290644870466240e-01
y_w1_r5 4.4535814032044913e-01
y_w2_r0 4.2897801665886375e+00
y_w2_r1 1.1107491856677527e+00
y_w2_r2 3.1241524875872395e-01
y_w2_r3 3.6425608172206744e-03
y_w2_r4 0
y_w2_r5 5.3204009316355017e-03
y_w3_r0 1.5032128730969034e+00
y_w3_r1 3.1399383995718710e-01
y_w3_r2 0
y_w3_r3 9.3034739231628549e-01
y_w3_r4 0
y_w3_r5 7.1626353874942705e-01
y_w4_r0 0
y_w4_r1 0
y_w4_r2 0
y_w4_r3 0
y_w4_r4 0
y_w4_r5 0
p_w0 2.9134284534568975e+00
s_w0 2.9134284534568975e+00
p_w1 4.7791428496289674e+00
s_w1 1.8657143961720699e+00
p_w2 1.2086571546543102e+01
s_w2 1.0220857150371032e+01
p_w3 1.0220857150371032e+01
s_w3 0
p_w4 0
s_w4 0
